0 63 
1 63 
2 63 
3 60 
4 59 
5 58 
6 58 
7 56 
8 56 
9 53 
10 53 
11 53 
12 49 
13 46 
14 49 
15 42 
16 38 
17 38 
18 37 
19 35 
20 33 
21 32 
22 31 
23 30 
24 33 
25 29 
26 28 
27 25 
28 22 
29 21 
30 19 
31 17 
32 17 
33 15 
34 16 
35 15 
36 13 
37 12 
38 11 
39 11 
40 8 
41 7 
42 4 
43 2 
44 4 
45 3 
46 5 
47 2 
48 2 
49 2 
50 2 
51 0 
52 0 

